18
35
14
33
19
35
34
21
24
34
24
14
15
16
23
11
12
24
33
18
35
29
13
35
37
35
28
26
19
21
35
24
37
29
11
35
28
28
30
29
14
24
11
13
12
20
26
18
21
24
28
25
17
34
16
19
33
12
15
35
15
28
28
37
38
37
40
17
31
22
13
28
33
13
18
21
32
29
27
35
37
33
20
18
28
21
38
15
15
27
20
35
14
34
22
24
31
29
32
25
12
12
18
19
22







